30
1 0 54
2 0 73
2 1 28
3 0 42
3 1 29
3 2 67
4 0 83
4 1 55
4 2 21
4 3 21
5 0 82
5 1 84
5 2 81
5 3 38
5 4 94
6 0 87
6 1 95
6 2 85
6 3 75
6 4 65
6 5 16
7 0 16
7 1 12
7 2 27
7 3 89
7 4 58
7 5 45
7 6 55
8 0 15
8 1 17
8 2 67
8 3 7
8 4 33
8 5 16
8 6 54
8 7 19
9 0 100
9 1 90
9 2 62
9 3 12
9 4 10
9 5 95
9 6 93
9 7 88
9 8 77
10 0 93
10 1 22
10 2 90
10 3 70
10 4 38
10 5 33
10 6 58
10 7 85
10 8 64
10 9 8
11 0 100
11 1 78
11 2 50
11 3 67
11 4 63
11 5 5
11 6 23
11 7 50
11 8 70
11 9 39
11 10 11
12 0 96
12 1 69
12 2 64
12 3 65
12 4 49
12 5 94
12 6 56
12 7 8
12 8 6
12 9 45
12 10 7
12 11 87
13 0 89
13 1 33
13 2 63
13 3 22
13 4 90
13 5 54
13 6 61
13 7 98
13 8 32
13 9 68
13 10 96
13 11 26
13 12 58
14 0 24
14 1 63
14 2 74
14 3 13
14 4 42
14 5 35
14 6 51
14 7 96
14 8 35
14 9 90
14 10 89
14 11 12
14 12 59
14 13 85
15 0 56
15 1 14
15 2 88
15 3 46
15 4 91
15 5 47
15 6 81
15 7 28
15 8 61
15 9 31
15 10 87
15 11 49
15 12 58
15 13 24
15 14 72
16 0 13
16 1 97
16 2 68
16 3 9
16 4 78
16 5 93
16 6 14
16 7 38
16 8 22
16 9 9
16 10 65
16 11 86
16 12 25
16 13 10
16 14 91
16 15 22
17 0 66
17 1 76
17 2 3
17 3 66
17 4 100
17 5 45
17 6 93
17 7 95
17 8 65
17 9 90
17 10 69
17 11 98
17 12 39
17 13 64
17 14 49
17 15 92
17 16 49
18 0 48
18 1 100
18 2 87
18 3 76
18 4 2
18 5 18
18 6 56
18 7 51
18 8 100
18 9 91
18 10 78
18 11 7
18 12 90
18 13 5
18 14 21
18 15 24
18 16 20
18 17 72
19 0 11
19 1 19
19 2 18
19 3 87
19 4 98
19 5 32
19 6 23
19 7 50
19 8 1
19 9 23
19 10 86
19 11 12
19 12 14
19 13 86
19 14 8
19 15 25
19 16 89
19 17 38
19 18 84
20 0 9
20 1 40
20 2 44
20 3 50
20 4 61
20 5 21
20 6 81
20 7 71
20 8 75
20 9 80
20 10 54
20 11 12
20 12 44
20 13 97
20 14 17
20 15 78
20 16 67
20 17 46
20 18 67
20 19 14
21 0 80
21 1 47
21 2 5
21 3 6
21 4 77
21 5 93
21 6 89
21 7 17
21 8 98
21 9 78
21 10 12
21 11 55
21 12 8
21 13 46
21 14 5
21 15 60
21 16 77
21 17 48
21 18 17
21 19 41
21 20 35
22 0 78
22 1 40
22 2 21
22 3 82
22 4 12
22 5 82
22 6 53
22 7 64
22 8 88
22 9 95
22 10 28
22 11 33
22 12 89
22 13 22
22 14 86
22 15 78
22 16 23
22 17 14
22 18 87
22 19 72
22 20 8
22 21 33
23 0 25
23 1 86
23 2 7
23 3 36
23 4 73
23 5 66
23 6 76
23 7 23
23 8 3
23 9 50
23 10 13
23 11 69
23 12 22
23 13 10
23 14 20
23 15 98
23 16 100
23 17 18
23 18 31
23 19 49
23 20 1
23 21 70
23 22 49
24 0 56
24 1 32
24 2 39
24 3 96
24 4 32
24 5 74
24 6 16
24 7 94
24 8 34
24 9 65
24 10 81
24 11 100
24 12 56
24 13 37
24 14 99
24 15 74
24 16 58
24 17 33
24 18 30
24 19 66
24 20 46
24 21 64
24 22 22
24 23 29
25 0 53
25 1 72
25 2 95
25 3 13
25 4 88
25 5 11
25 6 54
25 7 84
25 8 52
25 9 60
25 10 87
25 11 75
25 12 38
25 13 36
25 14 31
25 15 77
25 16 66
25 17 74
25 18 15
25 19 9
25 20 14
25 21 75
25 22 9
25 23 27
25 24 57
26 0 52
26 1 49
26 2 69
26 3 12
26 4 34
26 5 2
26 6 55
26 7 62
26 8 80
26 9 100
26 10 60
26 11 4
26 12 40
26 13 63
26 14 50
26 15 32
26 16 62
26 17 68
26 18 53
26 19 70
26 20 4
26 21 62
26 22 91
26 23 10
26 24 41
26 25 6
27 0 96
27 1 4
27 2 45
27 3 3
27 4 3
27 5 34
27 6 91
27 7 55
27 8 72
27 9 56
27 10 23
27 11 37
27 12 88
27 13 80
27 14 58
27 15 96
27 16 56
27 17 48
27 18 41
27 19 11
27 20 69
27 21 11
27 22 72
27 23 64
27 24 25
27 25 24
27 26 48
28 0 16
28 1 22
28 2 96
28 3 14
28 4 87
28 5 61
28 6 83
28 7 10
28 8 78
28 9 20
28 10 10
28 11 54
28 12 91
28 13 3
28 14 34
28 15 94
28 16 34
28 17 57
28 18 13
28 19 33
28 20 15
28 21 9
28 22 35
28 23 3
28 24 59
28 25 95
28 26 16
28 27 30
29 0 6
29 1 48
29 2 69
29 3 38
29 4 80
29 5 85
29 6 15
29 7 64
29 8 22
29 9 8
29 10 84
29 11 4
29 12 38
29 13 8
29 14 18
29 15 83
29 16 7
29 17 41
29 18 82
29 19 43
29 20 36
29 21 97
29 22 41
29 23 89
29 24 78
29 25 15
29 26 71
29 27 18
29 28 33
